132 5
10 10 10 10 10 

0 0 0 0 0 0 1 2 
0 0 0 0 0 0 5 3 4 5 11 12 
4 0 2 0 0 0 3 10 7 6 
10 0 2 0 0 0 3 9 8 7 
3 0 2 0 0 0 2 9 7 
2 0 5 0 0 0 1 8 
1 0 6 0 0 0 1 13 
1 0 5 0 0 0 1 13 
9 0 7 0 0 0 1 13 
10 0 10 0 0 0 1 13 
2 0 8 0 0 0 1 13 
9 0 3 0 0 0 1 13 
0 0 0 0 0 0 1 14 
0 0 0 0 0 0 5 15 16 17 18 19 
2 1 0 0 0 0 3 24 21 20 
9 5 0 0 0 0 3 24 23 22 
10 2 0 0 0 0 2 23 20 
4 5 0 0 0 0 2 23 22 
4 6 0 0 0 0 2 23 22 
6 9 0 0 0 0 1 22 
7 6 0 0 0 0 1 22 
8 5 0 0 0 0 1 25 
1 7 0 0 0 0 1 25 
6 4 0 0 0 0 1 25 
0 0 0 0 0 0 1 26 
0 0 0 0 0 0 4 27 29 30 36 
2 2 0 0 0 0 2 35 28 
3 3 0 0 0 0 3 34 32 31 
4 2 0 0 0 0 3 33 32 31 
8 6 0 0 0 0 2 33 31 
1 8 0 0 0 0 1 37 
6 10 0 0 0 0 1 37 
1 7 0 0 0 0 1 37 
4 4 0 0 0 0 1 37 
5 5 0 0 0 0 1 37 
8 3 0 0 0 0 1 37 
0 0 0 0 0 0 2 38 50 
0 0 0 0 0 0 3 39 40 98 
4 0 0 0 0 1 2 46 41 
2 0 0 0 0 4 2 47 42 
7 0 0 0 0 9 5 48 47 45 44 43 
9 0 0 0 0 4 4 46 45 44 43 
6 0 0 0 0 4 1 49 
2 0 0 0 0 5 1 49 
10 0 0 0 0 7 1 49 
2 0 0 0 0 7 1 49 
7 0 0 0 0 5 1 49 
8 0 0 0 0 4 1 49 
0 0 0 0 0 0 5 72 84 96 108 120 
0 0 0 0 0 0 14 51 52 54 57 61 62 63 64 65 66 67 68 69 70 
9 0 1 0 1 0 2 60 55 
1 0 4 0 6 0 2 53 75 
1 0 7 0 7 0 1 55 
4 0 5 0 3 0 2 59 58 
8 0 4 0 4 0 1 56 
8 0 5 0 8 0 1 58 
7 0 3 0 3 0 1 58 
7 0 4 0 5 0 1 71 
9 0 5 0 5 0 1 71 
1 0 5 0 4 0 1 71 
9 0 3 0 6 0 1 71 
3 0 5 0 8 0 1 71 
10 0 5 0 4 0 1 71 
3 0 10 0 7 0 1 71 
4 0 4 0 4 0 1 71 
4 0 4 0 7 0 1 71 
4 0 4 0 3 0 1 71 
3 0 7 0 2 0 1 71 
8 0 6 0 8 0 1 71 
1 0 9 0 5 0 1 71 
0 0 0 0 0 0 1 132 
0 0 0 0 0 0 7 73 75 76 79 80 81 82 
10 0 1 0 0 0 1 74 
7 0 3 0 0 0 1 77 
7 0 4 0 0 0 1 78 
1 0 9 0 0 0 1 77 
8 0 5 0 0 0 2 83 130 
4 0 5 0 0 0 1 83 
3 0 2 0 0 0 1 83 
4 0 8 0 0 0 1 83 
10 0 7 0 0 0 1 83 
5 0 6 0 0 0 1 83 
0 0 0 0 0 0 1 132 
0 0 0 0 0 0 3 85 86 87 
10 0 1 0 0 0 3 90 89 88 
3 0 4 0 0 0 3 90 89 88 
5 0 8 0 0 0 3 90 89 88 
7 0 3 0 0 0 4 94 93 92 91 
5 0 5 0 0 0 4 94 93 92 91 
3 0 1 0 0 0 4 94 93 92 91 
8 0 7 0 0 0 1 95 
9 0 5 0 0 0 1 95 
4 0 8 0 0 0 2 95 128 
9 0 8 0 0 0 1 95 
0 0 0 0 0 0 1 132 
0 0 0 0 0 0 5 97 99 100 101 106 
5 0 0 0 2 0 1 98 
2 0 0 0 3 0 1 102 
1 0 0 0 4 0 1 105 
6 0 0 0 5 0 2 104 127 
1 0 0 0 3 0 1 103 
7 0 0 0 4 0 1 107 
7 0 0 0 5 0 1 107 
4 0 0 0 5 0 1 107 
2 0 0 0 10 0 1 107 
2 0 0 0 9 0 1 107 
0 0 0 0 0 0 1 132 
0 0 0 0 0 0 5 109 110 112 113 114 
8 0 0 0 3 0 4 118 117 116 115 
3 0 0 0 4 0 1 111 
9 0 0 0 6 0 3 118 117 115 
5 0 0 0 10 0 2 116 115 
2 0 0 0 5 0 1 116 
8 0 0 0 4 0 2 115 128 
9 0 0 0 2 0 1 119 
10 0 0 0 4 0 1 119 
6 0 0 0 5 0 1 119 
3 0 0 0 7 0 1 119 
0 0 0 0 0 0 1 132 
0 0 0 0 0 0 4 121 122 123 125 
9 0 0 1 0 0 5 130 129 128 127 126 
2 0 0 8 0 0 3 128 126 124 
7 0 0 4 0 0 3 128 126 124 
9 0 0 5 0 0 1 127 
4 0 0 4 0 0 1 126 
5 0 0 4 0 0 1 131 
5 0 0 8 0 0 1 131 
2 0 0 5 0 0 1 131 
9 0 0 6 0 0 1 131 
2 0 0 5 0 0 1 131 
0 0 0 0 0 0 1 132 
0 0 0 0 0 0 0 
